p cnf 200 1110
-101 30 0
-101 68 0
-101 -58 0
-101 22 0
-101 -28 0
-101 -4 0
-101 39 0
-101 -23 0
-101 -16 0
-101 70 0
101 -30 -68 58 -22 28 4 -39 23 16 -70 0
-102 39 0
-102 52 0
-102 36 0
-102 -54 0
-102 9 0
-102 98 0
-102 -21 0
-102 -43 0
-102 -14 0
-102 73 0
102 -39 -52 -36 54 -9 -98 21 43 14 -73 0
-103 40 0
-103 -25 0
-103 -65 0
-103 -54 0
-103 -34 0
-103 99 0
-103 -56 0
-103 73 0
-103 41 0
-103 86 0
103 -40 25 65 54 34 -99 56 -73 -41 -86 0
-104 53 0
-104 68 0
-104 24 0
-104 56 0
-104 46 0
-104 -6 0
-104 -86 0
-104 -33 0
-104 10 0
-104 -84 0
104 -53 -68 -24 -56 -46 6 86 33 -10 84 0
-105 -67 0
-105 4 0
-105 -24 0
-105 83 0
-105 69 0
-105 99 0
-105 2 0
-105 -27 0
-105 -55 0
-105 -18 0
105 67 -4 24 -83 -69 -99 -2 27 55 18 0
-106 23 0
-106 -76 0
-106 25 0
-106 75 0
-106 -72 0
-106 -5 0
-106 10 0
-106 49 0
-106 -32 0
-106 56 0
106 -23 76 -25 -75 72 5 -10 -49 32 -56 0
-107 -100 0
-107 -24 0
-107 78 0
-107 31 0
-107 -83 0
-107 -6 0
-107 89 0
-107 53 0
-107 -9 0
-107 -20 0
107 100 24 -78 -31 83 6 -89 -53 9 20 0
-108 63 0
-108 -25 0
-108 19 0
-108 41 0
-108 93 0
-108 -33 0
-108 -98 0
-108 -85 0
-108 67 0
-108 68 0
108 -63 25 -19 -41 -93 33 98 85 -67 -68 0
-109 -11 0
-109 27 0
-109 -36 0
-109 -72 0
-109 -87 0
-109 -35 0
-109 -65 0
-109 -40 0
-109 95 0
-109 -100 0
109 11 -27 36 72 87 35 65 40 -95 100 0
-110 -86 0
-110 63 0
-110 8 0
-110 -43 0
-110 19 0
-110 98 0
-110 23 0
-110 50 0
-110 52 0
-110 -41 0
110 86 -63 -8 43 -19 -98 -23 -50 -52 41 0
101 102 103 104 105 106 107 108 109 110 0
-111 -41 0
-111 -25 0
-111 -100 0
-111 -77 0
-111 -78 0
-111 -54 0
-111 -24 0
-111 45 0
-111 -93 0
-111 -13 0
111 41 25 100 77 78 54 24 -45 93 13 0
-112 -1 0
-112 -31 0
-112 -48 0
-112 96 0
-112 41 0
-112 -24 0
-112 63 0
-112 -76 0
-112 34 0
-112 98 0
112 1 31 48 -96 -41 24 -63 76 -34 -98 0
-113 -55 0
-113 -48 0
-113 -9 0
-113 68 0
-113 -22 0
-113 -16 0
-113 63 0
-113 61 0
-113 96 0
-113 26 0
113 55 48 9 -68 22 16 -63 -61 -96 -26 0
-114 -91 0
-114 -87 0
-114 -14 0
-114 5 0
-114 -65 0
-114 81 0
-114 -78 0
-114 -92 0
-114 -97 0
-114 -93 0
114 91 87 14 -5 65 -81 78 92 97 93 0
-115 36 0
-115 7 0
-115 -16 0
-115 27 0
-115 22 0
-115 -18 0
-115 -52 0
-115 -75 0
-115 37 0
-115 -11 0
115 -36 -7 16 -27 -22 18 52 75 -37 11 0
-116 -92 0
-116 83 0
-116 -42 0
-116 31 0
-116 -26 0
-116 -70 0
-116 -85 0
-116 -89 0
-116 -75 0
-116 -45 0
116 92 -83 42 -31 26 70 85 89 75 45 0
-117 96 0
-117 62 0
-117 -50 0
-117 -37 0
-117 -8 0
-117 -59 0
-117 72 0
-117 -26 0
-117 -99 0
-117 -45 0
117 -96 -62 50 37 8 59 -72 26 99 45 0
-118 -17 0
-118 69 0
-118 -28 0
-118 91 0
-118 -97 0
-118 83 0
-118 65 0
-118 -26 0
-118 51 0
-118 59 0
118 17 -69 28 -91 97 -83 -65 26 -51 -59 0
-119 -40 0
-119 -92 0
-119 -41 0
-119 27 0
-119 -9 0
-119 53 0
-119 85 0
-119 84 0
-119 -97 0
-119 -69 0
119 40 92 41 -27 9 -53 -85 -84 97 69 0
-120 90 0
-120 -64 0
-120 -14 0
-120 99 0
-120 -84 0
-120 59 0
-120 16 0
-120 19 0
-120 95 0
-120 -55 0
120 -90 64 14 -99 84 -59 -16 -19 -95 55 0
111 112 113 114 115 116 117 118 119 120 0
-121 64 0
-121 75 0
-121 -24 0
-121 59 0
-121 94 0
-121 56 0
-121 97 0
-121 -22 0
-121 -13 0
-121 -49 0
121 -64 -75 24 -59 -94 -56 -97 22 13 49 0
-122 29 0
-122 28 0
-122 88 0
-122 -56 0
-122 -83 0
-122 17 0
-122 -54 0
-122 -60 0
-122 49 0
-122 98 0
122 -29 -28 -88 56 83 -17 54 60 -49 -98 0
-123 22 0
-123 -69 0
-123 -92 0
-123 95 0
-123 76 0
-123 -28 0
-123 16 0
-123 -34 0
-123 -80 0
-123 -13 0
123 -22 69 92 -95 -76 28 -16 34 80 13 0
-124 -29 0
-124 37 0
-124 -70 0
-124 -31 0
-124 51 0
-124 52 0
-124 32 0
-124 73 0
-124 98 0
-124 -80 0
124 29 -37 70 31 -51 -52 -32 -73 -98 80 0
-125 1 0
-125 -36 0
-125 34 0
-125 -61 0
-125 -82 0
-125 55 0
-125 92 0
-125 -80 0
-125 87 0
-125 -17 0
125 -1 36 -34 61 82 -55 -92 80 -87 17 0
-126 -82 0
-126 -17 0
-126 5 0
-126 -42 0
-126 -35 0
-126 57 0
-126 -66 0
-126 69 0
-126 -28 0
-126 -4 0
126 82 17 -5 42 35 -57 66 -69 28 4 0
-127 -83 0
-127 -58 0
-127 -31 0
-127 33 0
-127 -41 0
-127 -50 0
-127 -12 0
-127 -96 0
-127 52 0
-127 -77 0
127 83 58 31 -33 41 50 12 96 -52 77 0
-128 -6 0
-128 -67 0
-128 95 0
-128 -10 0
-128 14 0
-128 45 0
-128 -9 0
-128 -15 0
-128 28 0
-128 -32 0
128 6 67 -95 10 -14 -45 9 15 -28 32 0
-129 88 0
-129 73 0
-129 23 0
-129 -31 0
-129 -5 0
-129 -37 0
-129 -69 0
-129 -16 0
-129 14 0
-129 8 0
129 -88 -73 -23 31 5 37 69 16 -14 -8 0
-130 -92 0
-130 -79 0
-130 -15 0
-130 -54 0
-130 53 0
-130 -80 0
-130 -49 0
-130 78 0
-130 -32 0
-130 -9 0
130 92 79 15 54 -53 80 49 -78 32 9 0
121 122 123 124 125 126 127 128 129 130 0
-131 18 0
-131 61 0
-131 90 0
-131 24 0
-131 77 0
-131 53 0
-131 -19 0
-131 80 0
-131 44 0
-131 -81 0
131 -18 -61 -90 -24 -77 -53 19 -80 -44 81 0
-132 29 0
-132 71 0
-132 -32 0
-132 82 0
-132 68 0
-132 -8 0
-132 -39 0
-132 36 0
-132 -47 0
-132 81 0
132 -29 -71 32 -82 -68 8 39 -36 47 -81 0
-133 -72 0
-133 -89 0
-133 -97 0
-133 33 0
-133 39 0
-133 -2 0
-133 -15 0
-133 46 0
-133 -19 0
-133 -65 0
133 72 89 97 -33 -39 2 15 -46 19 65 0
-134 -7 0
-134 -12 0
-134 50 0
-134 19 0
-134 60 0
-134 35 0
-134 -68 0
-134 75 0
-134 3 0
-134 72 0
134 7 12 -50 -19 -60 -35 68 -75 -3 -72 0
-135 68 0
-135 57 0
-135 -71 0
-135 -89 0
-135 17 0
-135 79 0
-135 81 0
-135 11 0
-135 93 0
-135 -39 0
135 -68 -57 71 89 -17 -79 -81 -11 -93 39 0
-136 60 0
-136 -63 0
-136 52 0
-136 -35 0
-136 30 0
-136 -46 0
-136 -14 0
-136 -78 0
-136 -57 0
-136 98 0
136 -60 63 -52 35 -30 46 14 78 57 -98 0
-137 -28 0
-137 -13 0
-137 46 0
-137 -55 0
-137 27 0
-137 39 0
-137 -5 0
-137 59 0
-137 -81 0
-137 -64 0
137 28 13 -46 55 -27 -39 5 -59 81 64 0
-138 -26 0
-138 -89 0
-138 -45 0
-138 14 0
-138 -40 0
-138 -22 0
-138 50 0
-138 38 0
-138 94 0
-138 91 0
138 26 89 45 -14 40 22 -50 -38 -94 -91 0
-139 -96 0
-139 -68 0
-139 33 0
-139 -88 0
-139 -6 0
-139 26 0
-139 46 0
-139 -78 0
-139 1 0
-139 -61 0
139 96 68 -33 88 6 -26 -46 78 -1 61 0
-140 -58 0
-140 98 0
-140 31 0
-140 67 0
-140 40 0
-140 87 0
-140 -61 0
-140 6 0
-140 -32 0
-140 39 0
140 58 -98 -31 -67 -40 -87 61 -6 32 -39 0
131 132 133 134 135 136 137 138 139 140 0
-141 -21 0
-141 42 0
-141 -20 0
-141 26 0
-141 -92 0
-141 56 0
-141 -35 0
-141 -77 0
-141 -60 0
-141 44 0
141 21 -42 20 -26 92 -56 35 77 60 -44 0
-142 29 0
-142 -35 0
-142 99 0
-142 -70 0
-142 67 0
-142 20 0
-142 -3 0
-142 92 0
-142 -1 0
-142 -13 0
142 -29 35 -99 70 -67 -20 3 -92 1 13 0
-143 -97 0
-143 -35 0
-143 79 0
-143 -59 0
-143 -75 0
-143 -39 0
-143 9 0
-143 98 0
-143 -21 0
-143 85 0
143 97 35 -79 59 75 39 -9 -98 21 -85 0
-144 51 0
-144 -82 0
-144 73 0
-144 24 0
-144 41 0
-144 81 0
-144 46 0
-144 -68 0
-144 36 0
-144 18 0
144 -51 82 -73 -24 -41 -81 -46 68 -36 -18 0
-145 56 0
-145 -68 0
-145 62 0
-145 -27 0
-145 22 0
-145 36 0
-145 -58 0
-145 -40 0
-145 -69 0
-145 -87 0
145 -56 68 -62 27 -22 -36 58 40 69 87 0
-146 -65 0
-146 -30 0
-146 23 0
-146 78 0
-146 93 0
-146 76 0
-146 -34 0
-146 11 0
-146 94 0
-146 -44 0
146 65 30 -23 -78 -93 -76 34 -11 -94 44 0
-147 72 0
-147 -19 0
-147 55 0
-147 10 0
-147 13 0
-147 91 0
-147 17 0
-147 3 0
-147 93 0
-147 -26 0
147 -72 19 -55 -10 -13 -91 -17 -3 -93 26 0
-148 64 0
-148 27 0
-148 -17 0
-148 -37 0
-148 59 0
-148 -40 0
-148 -42 0
-148 65 0
-148 -35 0
-148 8 0
148 -64 -27 17 37 -59 40 42 -65 35 -8 0
-149 97 0
-149 -28 0
-149 -36 0
-149 -98 0
-149 -75 0
-149 80 0
-149 19 0
-149 -41 0
-149 -42 0
-149 -53 0
149 -97 28 36 98 75 -80 -19 41 42 53 0
-150 26 0
-150 95 0
-150 -77 0
-150 -63 0
-150 -98 0
-150 -22 0
-150 -72 0
-150 -49 0
-150 64 0
-150 66 0
150 -26 -95 77 63 98 22 72 49 -64 -66 0
141 142 143 144 145 146 147 148 149 150 0
-151 93 0
-151 94 0
-151 -67 0
-151 -33 0
-151 45 0
-151 77 0
-151 -72 0
-151 7 0
-151 -40 0
-151 -18 0
151 -93 -94 67 33 -45 -77 72 -7 40 18 0
-152 74 0
-152 93 0
-152 33 0
-152 95 0
-152 22 0
-152 66 0
-152 47 0
-152 25 0
-152 -83 0
-152 -29 0
152 -74 -93 -33 -95 -22 -66 -47 -25 83 29 0
-153 -52 0
-153 78 0
-153 63 0
-153 55 0
-153 65 0
-153 95 0
-153 92 0
-153 60 0
-153 96 0
-153 -14 0
153 52 -78 -63 -55 -65 -95 -92 -60 -96 14 0
-154 68 0
-154 74 0
-154 96 0
-154 9 0
-154 20 0
-154 28 0
-154 81 0
-154 97 0
-154 72 0
-154 -27 0
154 -68 -74 -96 -9 -20 -28 -81 -97 -72 27 0
-155 -69 0
-155 -68 0
-155 -85 0
-155 -100 0
-155 -19 0
-155 -18 0
-155 21 0
-155 11 0
-155 66 0
-155 -83 0
155 69 68 85 100 19 18 -21 -11 -66 83 0
-156 42 0
-156 -60 0
-156 54 0
-156 47 0
-156 -87 0
-156 -74 0
-156 10 0
-156 36 0
-156 88 0
-156 -11 0
156 -42 60 -54 -47 87 74 -10 -36 -88 11 0
-157 -56 0
-157 -63 0
-157 94 0
-157 52 0
-157 -85 0
-157 59 0
-157 -25 0
-157 15 0
-157 89 0
-157 47 0
157 56 63 -94 -52 85 -59 25 -15 -89 -47 0
-158 -79 0
-158 -59 0
-158 -46 0
-158 80 0
-158 75 0
-158 -14 0
-158 -70 0
-158 24 0
-158 87 0
-158 11 0
158 79 59 46 -80 -75 14 70 -24 -87 -11 0
-159 -19 0
-159 7 0
-159 -4 0
-159 36 0
-159 10 0
-159 50 0
-159 -89 0
-159 80 0
-159 96 0
-159 -11 0
159 19 -7 4 -36 -10 -50 89 -80 -96 11 0
-160 -76 0
-160 -29 0
-160 -54 0
-160 82 0
-160 59 0
-160 -43 0
-160 -18 0
-160 42 0
-160 -68 0
-160 70 0
160 76 29 54 -82 -59 43 18 -42 68 -70 0
151 152 153 154 155 156 157 158 159 160 0
-161 -32 0
-161 -63 0
-161 53 0
-161 -15 0
-161 -40 0
-161 43 0
-161 20 0
-161 -73 0
-161 -90 0
-161 9 0
161 32 63 -53 15 40 -43 -20 73 90 -9 0
-162 -52 0
-162 -60 0
-162 -2 0
-162 67 0
-162 56 0
-162 -3 0
-162 58 0
-162 -71 0
-162 97 0
-162 -1 0
162 52 60 2 -67 -56 3 -58 71 -97 1 0
-163 -99 0
-163 -70 0
-163 46 0
-163 64 0
-163 6 0
-163 -73 0
-163 76 0
-163 78 0
-163 -8 0
-163 -7 0
163 99 70 -46 -64 -6 73 -76 -78 8 7 0
-164 -79 0
-164 -87 0
-164 42 0
-164 -13 0
-164 -18 0
-164 37 0
-164 45 0
-164 60 0
-164 23 0
-164 -22 0
164 79 87 -42 13 18 -37 -45 -60 -23 22 0
-165 -10 0
-165 -26 0
-165 24 0
-165 -41 0
-165 98 0
-165 -89 0
-165 67 0
-165 86 0
-165 -71 0
-165 -78 0
165 10 26 -24 41 -98 89 -67 -86 71 78 0
-166 38 0
-166 -96 0
-166 33 0
-166 -99 0
-166 -71 0
-166 -97 0
-166 5 0
-166 -40 0
-166 -24 0
-166 -14 0
166 -38 96 -33 99 71 97 -5 40 24 14 0
-167 -9 0
-167 25 0
-167 -23 0
-167 -62 0
-167 85 0
-167 45 0
-167 83 0
-167 -71 0
-167 51 0
-167 -40 0
167 9 -25 23 62 -85 -45 -83 71 -51 40 0
-168 33 0
-168 -48 0
-168 -20 0
-168 2 0
-168 -12 0
-168 7 0
-168 -96 0
-168 18 0
-168 76 0
-168 -16 0
168 -33 48 20 -2 12 -7 96 -18 -76 16 0
-169 -33 0
-169 -55 0
-169 -78 0
-169 -4 0
-169 -36 0
-169 -6 0
-169 -70 0
-169 -83 0
-169 37 0
-169 45 0
169 33 55 78 4 36 6 70 83 -37 -45 0
-170 79 0
-170 -61 0
-170 -63 0
-170 -96 0
-170 82 0
-170 -32 0
-170 98 0
-170 -8 0
-170 -87 0
-170 80 0
170 -79 61 63 96 -82 32 -98 8 87 -80 0
161 162 163 164 165 166 167 168 169 170 0
-171 -53 0
-171 15 0
-171 -89 0
-171 72 0
-171 -32 0
-171 3 0
-171 -27 0
-171 11 0
-171 -20 0
-171 46 0
171 53 -15 89 -72 32 -3 27 -11 20 -46 0
-172 27 0
-172 -10 0
-172 -38 0
-172 77 0
-172 76 0
-172 -14 0
-172 -2 0
-172 15 0
-172 -12 0
-172 -44 0
172 -27 10 38 -77 -76 14 2 -15 12 44 0
-173 83 0
-173 -30 0
-173 100 0
-173 -52 0
-173 12 0
-173 -84 0
-173 -43 0
-173 -55 0
-173 56 0
-173 -47 0
173 -83 30 -100 52 -12 84 43 55 -56 47 0
-174 -7 0
-174 78 0
-174 6 0
-174 -31 0
-174 -74 0
-174 -21 0
-174 -46 0
-174 -52 0
-174 50 0
-174 60 0
174 7 -78 -6 31 74 21 46 52 -50 -60 0
-175 -97 0
-175 -56 0
-175 85 0
-175 -32 0
-175 16 0
-175 -49 0
-175 21 0
-175 46 0
-175 93 0
-175 -52 0
175 97 56 -85 32 -16 49 -21 -46 -93 52 0
-176 65 0
-176 -14 0
-176 81 0
-176 42 0
-176 -61 0
-176 -37 0
-176 -32 0
-176 -23 0
-176 -93 0
-176 52 0
176 -65 14 -81 -42 61 37 32 23 93 -52 0
-177 19 0
-177 -50 0
-177 46 0
-177 -10 0
-177 -8 0
-177 14 0
-177 23 0
-177 -37 0
-177 -24 0
-177 35 0
177 -19 50 -46 10 8 -14 -23 37 24 -35 0
-178 48 0
-178 -33 0
-178 -28 0
-178 -81 0
-178 74 0
-178 -43 0
-178 -12 0
-178 -82 0
-178 73 0
-178 10 0
178 -48 33 28 81 -74 43 12 82 -73 -10 0
-179 -70 0
-179 -96 0
-179 -20 0
-179 85 0
-179 -71 0
-179 -5 0
-179 -89 0
-179 58 0
-179 45 0
-179 -33 0
179 70 96 20 -85 71 5 89 -58 -45 33 0
-180 57 0
-180 44 0
-180 -83 0
-180 74 0
-180 76 0
-180 38 0
-180 100 0
-180 -87 0
-180 6 0
-180 70 0
180 -57 -44 83 -74 -76 -38 -100 87 -6 -70 0
171 172 173 174 175 176 177 178 179 180 0
-181 46 0
-181 -19 0
-181 40 0
-181 -69 0
-181 -49 0
-181 73 0
-181 5 0
-181 -24 0
-181 92 0
-181 -85 0
181 -46 19 -40 69 49 -73 -5 24 -92 85 0
-182 90 0
-182 -64 0
-182 -61 0
-182 42 0
-182 91 0
-182 27 0
-182 3 0
-182 -20 0
-182 -53 0
-182 -1 0
182 -90 64 61 -42 -91 -27 -3 20 53 1 0
-183 -46 0
-183 -42 0
-183 -63 0
-183 -74 0
-183 69 0
-183 73 0
-183 -21 0
-183 83 0
-183 -6 0
-183 -50 0
183 46 42 63 74 -69 -73 21 -83 6 50 0
-184 -12 0
-184 -37 0
-184 65 0
-184 87 0
-184 43 0
-184 -39 0
-184 -13 0
-184 -50 0
-184 67 0
-184 7 0
184 12 37 -65 -87 -43 39 13 50 -67 -7 0
-185 45 0
-185 76 0
-185 -99 0
-185 -62 0
-185 -19 0
-185 -82 0
-185 -84 0
-185 23 0
-185 71 0
-185 28 0
185 -45 -76 99 62 19 82 84 -23 -71 -28 0
-186 -78 0
-186 19 0
-186 -20 0
-186 -60 0
-186 -16 0
-186 -48 0
-186 -38 0
-186 91 0
-186 88 0
-186 100 0
186 78 -19 20 60 16 48 38 -91 -88 -100 0
-187 -7 0
-187 52 0
-187 88 0
-187 82 0
-187 -74 0
-187 -22 0
-187 50 0
-187 -41 0
-187 42 0
-187 89 0
187 7 -52 -88 -82 74 22 -50 41 -42 -89 0
-188 60 0
-188 -55 0
-188 -70 0
-188 -49 0
-188 -24 0
-188 -47 0
-188 -62 0
-188 53 0
-188 -76 0
-188 90 0
188 -60 55 70 49 24 47 62 -53 76 -90 0
-189 72 0
-189 53 0
-189 -14 0
-189 -57 0
-189 -52 0
-189 21 0
-189 -33 0
-189 -61 0
-189 -84 0
-189 -51 0
189 -72 -53 14 57 52 -21 33 61 84 51 0
-190 34 0
-190 -46 0
-190 40 0
-190 23 0
-190 -64 0
-190 8 0
-190 -19 0
-190 -22 0
-190 -55 0
-190 -36 0
190 -34 46 -40 -23 64 -8 19 22 55 36 0
181 182 183 184 185 186 187 188 189 190 0
-191 -93 0
-191 -10 0
-191 37 0
-191 -35 0
-191 -97 0
-191 -43 0
-191 -15 0
-191 72 0
-191 75 0
-191 -24 0
191 93 10 -37 35 97 43 15 -72 -75 24 0
-192 -21 0
-192 90 0
-192 43 0
-192 67 0
-192 41 0
-192 1 0
-192 8 0
-192 -81 0
-192 -38 0
-192 7 0
192 21 -90 -43 -67 -41 -1 -8 81 38 -7 0
-193 24 0
-193 -19 0
-193 -70 0
-193 -67 0
-193 43 0
-193 -95 0
-193 -78 0
-193 55 0
-193 -64 0
-193 83 0
193 -24 19 70 67 -43 95 78 -55 64 -83 0
-194 -41 0
-194 17 0
-194 -39 0
-194 37 0
-194 64 0
-194 -1 0
-194 -5 0
-194 81 0
-194 10 0
-194 -73 0
194 41 -17 39 -37 -64 1 5 -81 -10 73 0
-195 46 0
-195 -94 0
-195 41 0
-195 -95 0
-195 -29 0
-195 8 0
-195 -36 0
-195 54 0
-195 62 0
-195 67 0
195 -46 94 -41 95 29 -8 36 -54 -62 -67 0
-196 -98 0
-196 41 0
-196 94 0
-196 -74 0
-196 57 0
-196 -2 0
-196 43 0
-196 52 0
-196 44 0
-196 100 0
196 98 -41 -94 74 -57 2 -43 -52 -44 -100 0
-197 73 0
-197 -78 0
-197 46 0
-197 57 0
-197 -77 0
-197 -22 0
-197 58 0
-197 -39 0
-197 10 0
-197 69 0
197 -73 78 -46 -57 77 22 -58 39 -10 -69 0
-198 -57 0
-198 -58 0
-198 42 0
-198 34 0
-198 77 0
-198 -24 0
-198 85 0
-198 60 0
-198 33 0
-198 64 0
198 57 58 -42 -34 -77 24 -85 -60 -33 -64 0
-199 5 0
-199 -31 0
-199 -70 0
-199 -68 0
-199 -26 0
-199 -79 0
-199 -35 0
-199 1 0
-199 91 0
-199 39 0
199 -5 31 70 68 26 79 35 -1 -91 -39 0
-200 -13 0
-200 97 0
-200 83 0
-200 -87 0
-200 -19 0
-200 -24 0
-200 -5 0
-200 93 0
-200 -15 0
-200 -78 0
200 13 -97 -83 87 19 24 5 -93 15 78 0
191 192 193 194 195 196 197 198 199 200 0
